; Benchmark for LTL-sketching problem
(set-logic QF_UF)
(set-info :status unknown)
(declare-fun z_0_0 () Bool)
(declare-fun z_0_1 () Bool)
(declare-fun z_0_3 () Bool)
(declare-fun z_0_6 () Bool)
(declare-fun z_0_7 () Bool)
(declare-fun z_0_9 () Bool)
(declare-fun z_0_10 () Bool)
(declare-fun z_0_11 () Bool)
(declare-fun z_0_19 () Bool)
(declare-fun z_0_21 () Bool)
(declare-fun z_0_28 () Bool)
(declare-fun z_0_29 () Bool)
(declare-fun z_0_30 () Bool)
(declare-fun z_0_31 () Bool)
(declare-fun z_0_32 () Bool)
(declare-fun z_0_33 () Bool)
(declare-fun z_0_35 () Bool)
(declare-fun z_0_36 () Bool)
(declare-fun z_0_37 () Bool)
(declare-fun z_0_39 () Bool)
(declare-fun z_0_40 () Bool)
(declare-fun z_0_42 () Bool)
(declare-fun z_0_43 () Bool)
(declare-fun z_0_50 () Bool)
(declare-fun z_0_52 () Bool)
(declare-fun z_0_54 () Bool)
(declare-fun z_0_55 () Bool)
(declare-fun z_0_56 () Bool)
(declare-fun z_0_58 () Bool)
(declare-fun z_0_59 () Bool)
(declare-fun z_0_60 () Bool)
(declare-fun z_0_61 () Bool)
(declare-fun z_0_62 () Bool)
(declare-fun z_0_64 () Bool)
(declare-fun z_0_67 () Bool)
(declare-fun z_0_68 () Bool)
(declare-fun z_0_76 () Bool)
(declare-fun z_0_79 () Bool)
(declare-fun z_0_82 () Bool)
(declare-fun z_0_83 () Bool)
(declare-fun x_0_G () Bool)
(declare-fun x_0_F () Bool)
(declare-fun x_0_X () Bool)
(declare-fun x_0_! () Bool)
(declare-fun z_2_0 () Bool)
(declare-fun z_2_1 () Bool)
(declare-fun z_2_2 () Bool)
(declare-fun z_0_2 () Bool)
(declare-fun z_2_3 () Bool)
(declare-fun z_2_4 () Bool)
(declare-fun z_2_5 () Bool)
(declare-fun z_0_4 () Bool)
(declare-fun z_0_5 () Bool)
(declare-fun z_2_6 () Bool)
(declare-fun z_2_7 () Bool)
(declare-fun z_2_8 () Bool)
(declare-fun z_2_10 () Bool)
(declare-fun z_2_9 () Bool)
(declare-fun z_0_8 () Bool)
(declare-fun z_2_11 () Bool)
(declare-fun z_2_12 () Bool)
(declare-fun z_2_18 () Bool)
(declare-fun z_2_17 () Bool)
(declare-fun z_2_16 () Bool)
(declare-fun z_2_15 () Bool)
(declare-fun z_2_14 () Bool)
(declare-fun z_2_13 () Bool)
(declare-fun z_0_12 () Bool)
(declare-fun z_0_13 () Bool)
(declare-fun z_0_14 () Bool)
(declare-fun z_0_15 () Bool)
(declare-fun z_0_16 () Bool)
(declare-fun z_0_17 () Bool)
(declare-fun z_0_18 () Bool)
(declare-fun z_2_19 () Bool)
(declare-fun z_2_20 () Bool)
(declare-fun z_0_20 () Bool)
(declare-fun z_2_21 () Bool)
(declare-fun z_2_22 () Bool)
(declare-fun z_2_27 () Bool)
(declare-fun z_2_26 () Bool)
(declare-fun z_2_25 () Bool)
(declare-fun z_2_24 () Bool)
(declare-fun z_2_23 () Bool)
(declare-fun z_0_22 () Bool)
(declare-fun z_0_23 () Bool)
(declare-fun z_0_24 () Bool)
(declare-fun z_0_25 () Bool)
(declare-fun z_0_26 () Bool)
(declare-fun z_0_27 () Bool)
(declare-fun z_2_28 () Bool)
(declare-fun z_2_29 () Bool)
(declare-fun z_2_30 () Bool)
(declare-fun z_2_31 () Bool)
(declare-fun z_2_32 () Bool)
(declare-fun z_2_33 () Bool)
(declare-fun z_2_34 () Bool)
(declare-fun z_0_34 () Bool)
(declare-fun z_2_35 () Bool)
(declare-fun z_2_36 () Bool)
(declare-fun z_2_37 () Bool)
(declare-fun z_2_38 () Bool)
(declare-fun z_0_38 () Bool)
(declare-fun z_2_39 () Bool)
(declare-fun z_2_40 () Bool)
(declare-fun z_2_41 () Bool)
(declare-fun z_0_41 () Bool)
(declare-fun z_2_42 () Bool)
(declare-fun z_2_43 () Bool)
(declare-fun z_2_44 () Bool)
(declare-fun z_2_49 () Bool)
(declare-fun z_2_48 () Bool)
(declare-fun z_2_47 () Bool)
(declare-fun z_2_46 () Bool)
(declare-fun z_2_45 () Bool)
(declare-fun z_0_44 () Bool)
(declare-fun z_0_45 () Bool)
(declare-fun z_0_46 () Bool)
(declare-fun z_0_47 () Bool)
(declare-fun z_0_48 () Bool)
(declare-fun z_0_49 () Bool)
(declare-fun z_2_50 () Bool)
(declare-fun z_2_51 () Bool)
(declare-fun z_0_51 () Bool)
(declare-fun z_2_52 () Bool)
(declare-fun z_2_53 () Bool)
(declare-fun z_0_53 () Bool)
(declare-fun z_2_54 () Bool)
(declare-fun z_2_55 () Bool)
(declare-fun z_2_56 () Bool)
(declare-fun z_2_57 () Bool)
(declare-fun z_0_57 () Bool)
(declare-fun z_2_58 () Bool)
(declare-fun z_2_59 () Bool)
(declare-fun z_2_60 () Bool)
(declare-fun z_2_61 () Bool)
(declare-fun z_2_62 () Bool)
(declare-fun z_2_63 () Bool)
(declare-fun z_0_63 () Bool)
(declare-fun z_2_64 () Bool)
(declare-fun z_2_65 () Bool)
(declare-fun z_2_66 () Bool)
(declare-fun z_0_65 () Bool)
(declare-fun z_0_66 () Bool)
(declare-fun z_2_67 () Bool)
(declare-fun z_2_68 () Bool)
(declare-fun z_2_69 () Bool)
(declare-fun z_2_75 () Bool)
(declare-fun z_2_74 () Bool)
(declare-fun z_2_73 () Bool)
(declare-fun z_2_72 () Bool)
(declare-fun z_2_71 () Bool)
(declare-fun z_2_70 () Bool)
(declare-fun z_0_69 () Bool)
(declare-fun z_0_70 () Bool)
(declare-fun z_0_71 () Bool)
(declare-fun z_0_72 () Bool)
(declare-fun z_0_73 () Bool)
(declare-fun z_0_74 () Bool)
(declare-fun z_0_75 () Bool)
(declare-fun z_2_76 () Bool)
(declare-fun z_2_77 () Bool)
(declare-fun z_2_78 () Bool)
(declare-fun z_0_77 () Bool)
(declare-fun z_0_78 () Bool)
(declare-fun z_2_79 () Bool)
(declare-fun z_2_80 () Bool)
(declare-fun z_2_81 () Bool)
(declare-fun z_0_80 () Bool)
(declare-fun z_0_81 () Bool)
(declare-fun z_2_82 () Bool)
(declare-fun z_2_83 () Bool)
(declare-fun z_2_84 () Bool)
(declare-fun z_0_84 () Bool)
(declare-fun x_2_p () Bool)
(declare-fun x_2_-> () Bool)
(declare-fun x_2_U () Bool)
(declare-fun x_2_v () Bool)
(declare-fun x_2_& () Bool)
(declare-fun x_2_X () Bool)
(declare-fun x_2_! () Bool)
(declare-fun x_2_F () Bool)
(declare-fun x_2_G () Bool)
(assert
 z_0_0)
(assert
 (not z_0_1))
(assert
 (not z_0_3))
(assert
 (not z_0_6))
(assert
 (not z_0_7))
(assert
 (not z_0_9))
(assert
 (not z_0_10))
(assert
 (not z_0_11))
(assert
 (not z_0_19))
(assert
 (not z_0_21))
(assert
 (not z_0_28))
(assert
 (not z_0_29))
(assert
 (not z_0_30))
(assert
 (not z_0_31))
(assert
 (not z_0_32))
(assert
 (not z_0_33))
(assert
 (not z_0_35))
(assert
 (not z_0_36))
(assert
 (not z_0_37))
(assert
 (not z_0_39))
(assert
 (not z_0_40))
(assert
 (not z_0_42))
(assert
 (not z_0_43))
(assert
 (not z_0_50))
(assert
 (not z_0_52))
(assert
 (not z_0_54))
(assert
 (not z_0_55))
(assert
 (not z_0_56))
(assert
 (not z_0_58))
(assert
 (not z_0_59))
(assert
 (not z_0_60))
(assert
 (not z_0_61))
(assert
 (not z_0_62))
(assert
 (not z_0_64))
(assert
 (not z_0_67))
(assert
 (not z_0_68))
(assert
 (not z_0_76))
(assert
 (not z_0_79))
(assert
 (not z_0_82))
(assert
 (not z_0_83))
(assert
 (or x_0_! x_0_X x_0_F x_0_G))
(assert
 (let (($x15 (not x_0_G)))
 (let (($x13 (not x_0_F)))
 (let (($x19 (or $x13 $x15)))
 (let (($x11 (not x_0_X)))
 (let (($x18 (or $x11 $x15)))
 (let (($x17 (or $x11 $x13)))
 (let (($x10 (not x_0_!)))
 (let (($x16 (or $x10 $x15)))
 (let (($x14 (or $x10 $x13)))
 (let (($x12 (or $x10 $x11)))
 (and $x12 $x14 $x16 $x17 $x18 $x19))))))))))))
(assert
 (=> x_0_! (= z_0_0 (not z_2_0))))
(assert
 (let (($x1851 (= z_0_0 z_2_0)))
 (=> x_0_X $x1851)))
(assert
 (=> x_0_F (= z_0_0 (or z_2_0))))
(assert
 (=> x_0_G (= z_0_0 (and z_2_0))))
(assert
 (=> x_0_! (= z_0_1 (not z_2_1))))
(assert
 (let (($x1830 (= z_0_1 z_2_2)))
 (=> x_0_X $x1830)))
(assert
 (=> x_0_F (= z_0_1 (or z_2_1 z_2_2 z_2_0))))
(assert
 (let (($x1819 (= z_0_1 (and z_2_1 z_2_2 z_2_0))))
 (=> x_0_G $x1819)))
(assert
 (=> x_0_! (= z_0_2 (not z_2_2))))
(assert
 (let (($x5864 (= z_0_2 z_2_0)))
 (=> x_0_X $x5864)))
(assert
 (let (($x5868 (= z_0_2 (or z_2_2 z_2_0))))
 (=> x_0_F $x5868)))
(assert
 (let (($x5872 (= z_0_2 (and z_2_2 z_2_0))))
 (=> x_0_G $x5872)))
(assert
 (=> x_0_! (= z_0_3 (not z_2_3))))
(assert
 (let (($x5883 (= z_0_3 z_2_4)))
 (=> x_0_X $x5883)))
(assert
 (let (($x5887 (or z_2_3 z_2_4 z_2_5)))
 (let (($x5888 (= z_0_3 $x5887)))
 (=> x_0_F $x5888))))
(assert
 (let (($x5892 (= z_0_3 (and z_2_3 z_2_4 z_2_5))))
 (=> x_0_G $x5892)))
(assert
 (=> x_0_! (= z_0_4 (not z_2_4))))
(assert
 (let (($x5901 (= z_0_4 z_2_5)))
 (=> x_0_X $x5901)))
(assert
 (=> x_0_F (= z_0_4 (or z_2_4 z_2_5 z_2_3))))
(assert
 (let (($x5910 (= z_0_4 (and z_2_4 z_2_5 z_2_3))))
 (=> x_0_G $x5910)))
(assert
 (=> x_0_! (= z_0_5 (not z_2_5))))
(assert
 (let (($x5919 (= z_0_5 z_2_3)))
 (=> x_0_X $x5919)))
(assert
 (=> x_0_F (= z_0_5 (or z_2_5 z_2_3 z_2_4))))
(assert
 (let (($x5928 (= z_0_5 (and z_2_5 z_2_3 z_2_4))))
 (=> x_0_G $x5928)))
(assert
 (=> x_0_! (= z_0_6 (not z_2_6))))
(assert
 (let (($x5938 (= z_0_6 z_2_5)))
 (=> x_0_X $x5938)))
(assert
 (=> x_0_F (= z_0_6 (or z_2_6 z_2_5 z_2_3 z_2_4))))
(assert
 (let (($x5948 (= z_0_6 (and z_2_6 z_2_5 z_2_3 z_2_4))))
 (=> x_0_G $x5948)))
(assert
 (=> x_0_! (= z_0_7 (not z_2_7))))
(assert
 (let (($x5959 (= z_0_7 z_2_8)))
 (=> x_0_X $x5959)))
(assert
 (let (($x5965 (= z_0_7 (or z_2_7 z_2_8 z_2_9 z_2_10))))
 (=> x_0_F $x5965)))
(assert
 (let (($x5969 (= z_0_7 (and z_2_7 z_2_8 z_2_9 z_2_10))))
 (=> x_0_G $x5969)))
(assert
 (=> x_0_! (= z_0_8 (not z_2_8))))
(assert
 (let (($x5978 (= z_0_8 z_2_9)))
 (=> x_0_X $x5978)))
(assert
 (let (($x5982 (= z_0_8 (or z_2_8 z_2_9 z_2_10))))
 (=> x_0_F $x5982)))
(assert
 (let (($x5986 (= z_0_8 (and z_2_8 z_2_9 z_2_10))))
 (=> x_0_G $x5986)))
(assert
 (=> x_0_! (= z_0_9 (not z_2_9))))
(assert
 (let (($x5995 (= z_0_9 z_2_10)))
 (=> x_0_X $x5995)))
(assert
 (let (($x5999 (= z_0_9 (or z_2_9 z_2_10))))
 (=> x_0_F $x5999)))
(assert
 (let (($x6003 (= z_0_9 (and z_2_9 z_2_10))))
 (=> x_0_G $x6003)))
(assert
 (=> x_0_! (= z_0_10 (not z_2_10))))
(assert
 (let (($x6012 (= z_0_10 z_2_9)))
 (=> x_0_X $x6012)))
(assert
 (let (($x6016 (= z_0_10 (or z_2_10 z_2_9))))
 (=> x_0_F $x6016)))
(assert
 (let (($x6020 (= z_0_10 (and z_2_10 z_2_9))))
 (=> x_0_G $x6020)))
(assert
 (=> x_0_! (= z_0_11 (not z_2_11))))
(assert
 (let (($x6031 (= z_0_11 z_2_12)))
 (=> x_0_X $x6031)))
(assert
 (let (($x6040 (or z_2_11 z_2_12 z_2_13 z_2_14 z_2_15 z_2_16 z_2_17 z_2_18)))
 (let (($x6041 (= z_0_11 $x6040)))
 (=> x_0_F $x6041))))
(assert
 (let (($x6044 (and z_2_11 z_2_12 z_2_13 z_2_14 z_2_15 z_2_16 z_2_17 z_2_18)))
 (let (($x6045 (= z_0_11 $x6044)))
 (=> x_0_G $x6045))))
(assert
 (=> x_0_! (= z_0_12 (not z_2_12))))
(assert
 (let (($x6054 (= z_0_12 z_2_13)))
 (=> x_0_X $x6054)))
(assert
 (let (($x6058 (= z_0_12 (or z_2_12 z_2_13 z_2_14 z_2_15 z_2_16 z_2_17 z_2_18))))
 (=> x_0_F $x6058)))
(assert
 (let (($x6062 (= z_0_12 (and z_2_12 z_2_13 z_2_14 z_2_15 z_2_16 z_2_17 z_2_18))))
 (=> x_0_G $x6062)))
(assert
 (=> x_0_! (= z_0_13 (not z_2_13))))
(assert
 (let (($x6071 (= z_0_13 z_2_14)))
 (=> x_0_X $x6071)))
(assert
 (let (($x6075 (= z_0_13 (or z_2_13 z_2_14 z_2_15 z_2_16 z_2_17 z_2_18))))
 (=> x_0_F $x6075)))
(assert
 (let (($x6079 (= z_0_13 (and z_2_13 z_2_14 z_2_15 z_2_16 z_2_17 z_2_18))))
 (=> x_0_G $x6079)))
(assert
 (=> x_0_! (= z_0_14 (not z_2_14))))
(assert
 (let (($x6088 (= z_0_14 z_2_15)))
 (=> x_0_X $x6088)))
(assert
 (let (($x6092 (= z_0_14 (or z_2_14 z_2_15 z_2_16 z_2_17 z_2_18))))
 (=> x_0_F $x6092)))
(assert
 (let (($x6096 (= z_0_14 (and z_2_14 z_2_15 z_2_16 z_2_17 z_2_18))))
 (=> x_0_G $x6096)))
(assert
 (=> x_0_! (= z_0_15 (not z_2_15))))
(assert
 (let (($x6105 (= z_0_15 z_2_16)))
 (=> x_0_X $x6105)))
(assert
 (let (($x6108 (or z_2_15 z_2_16 z_2_17 z_2_18)))
 (let (($x6109 (= z_0_15 $x6108)))
 (=> x_0_F $x6109))))
(assert
 (let (($x6113 (= z_0_15 (and z_2_15 z_2_16 z_2_17 z_2_18))))
 (=> x_0_G $x6113)))
(assert
 (=> x_0_! (= z_0_16 (not z_2_16))))
(assert
 (let (($x6122 (= z_0_16 z_2_17)))
 (=> x_0_X $x6122)))
(assert
 (=> x_0_F (= z_0_16 (or z_2_16 z_2_17 z_2_18 z_2_15))))
(assert
 (let (($x6131 (= z_0_16 (and z_2_16 z_2_17 z_2_18 z_2_15))))
 (=> x_0_G $x6131)))
(assert
 (=> x_0_! (= z_0_17 (not z_2_17))))
(assert
 (let (($x6140 (= z_0_17 z_2_18)))
 (=> x_0_X $x6140)))
(assert
 (=> x_0_F (= z_0_17 (or z_2_17 z_2_18 z_2_15 z_2_16))))
(assert
 (let (($x6149 (= z_0_17 (and z_2_17 z_2_18 z_2_15 z_2_16))))
 (=> x_0_G $x6149)))
(assert
 (=> x_0_! (= z_0_18 (not z_2_18))))
(assert
 (let (($x6158 (= z_0_18 z_2_15)))
 (=> x_0_X $x6158)))
(assert
 (=> x_0_F (= z_0_18 (or z_2_18 z_2_15 z_2_16 z_2_17))))
(assert
 (let (($x6167 (= z_0_18 (and z_2_18 z_2_15 z_2_16 z_2_17))))
 (=> x_0_G $x6167)))
(assert
 (=> x_0_! (= z_0_19 (not z_2_19))))
(assert
 (let (($x6178 (= z_0_19 z_2_20)))
 (=> x_0_X $x6178)))
(assert
 (=> x_0_F (= z_0_19 (or z_2_19 z_2_20 z_2_16 z_2_17 z_2_18 z_2_15))))
(assert
 (let (($x6188 (= z_0_19 (and z_2_19 z_2_20 z_2_16 z_2_17 z_2_18 z_2_15))))
 (=> x_0_G $x6188)))
(assert
 (=> x_0_! (= z_0_20 (not z_2_20))))
(assert
 (let (($x6197 (= z_0_20 z_2_16)))
 (=> x_0_X $x6197)))
(assert
 (=> x_0_F (= z_0_20 (or z_2_20 z_2_16 z_2_17 z_2_18 z_2_15))))
(assert
 (let (($x6207 (= z_0_20 (and z_2_20 z_2_16 z_2_17 z_2_18 z_2_15))))
 (=> x_0_G $x6207)))
(assert
 (=> x_0_! (= z_0_21 (not z_2_21))))
(assert
 (let (($x6218 (= z_0_21 z_2_22)))
 (=> x_0_X $x6218)))
(assert
 (let (($x6227 (= z_0_21 (or z_2_21 z_2_22 z_2_23 z_2_24 z_2_25 z_2_26 z_2_27))))
 (=> x_0_F $x6227)))
(assert
 (let (($x6231 (= z_0_21 (and z_2_21 z_2_22 z_2_23 z_2_24 z_2_25 z_2_26 z_2_27))))
 (=> x_0_G $x6231)))
(assert
 (=> x_0_! (= z_0_22 (not z_2_22))))
(assert
 (let (($x6240 (= z_0_22 z_2_23)))
 (=> x_0_X $x6240)))
(assert
 (let (($x6244 (= z_0_22 (or z_2_22 z_2_23 z_2_24 z_2_25 z_2_26 z_2_27))))
 (=> x_0_F $x6244)))
(assert
 (let (($x6248 (= z_0_22 (and z_2_22 z_2_23 z_2_24 z_2_25 z_2_26 z_2_27))))
 (=> x_0_G $x6248)))
(assert
 (=> x_0_! (= z_0_23 (not z_2_23))))
(assert
 (let (($x6257 (= z_0_23 z_2_24)))
 (=> x_0_X $x6257)))
(assert
 (let (($x6261 (= z_0_23 (or z_2_23 z_2_24 z_2_25 z_2_26 z_2_27))))
 (=> x_0_F $x6261)))
(assert
 (let (($x6265 (= z_0_23 (and z_2_23 z_2_24 z_2_25 z_2_26 z_2_27))))
 (=> x_0_G $x6265)))
(assert
 (=> x_0_! (= z_0_24 (not z_2_24))))
(assert
 (let (($x6274 (= z_0_24 z_2_25)))
 (=> x_0_X $x6274)))
(assert
 (let (($x6277 (or z_2_24 z_2_25 z_2_26 z_2_27)))
 (let (($x6278 (= z_0_24 $x6277)))
 (=> x_0_F $x6278))))
(assert
 (let (($x6282 (= z_0_24 (and z_2_24 z_2_25 z_2_26 z_2_27))))
 (=> x_0_G $x6282)))
(assert
 (=> x_0_! (= z_0_25 (not z_2_25))))
(assert
 (let (($x6291 (= z_0_25 z_2_26)))
 (=> x_0_X $x6291)))
(assert
 (=> x_0_F (= z_0_25 (or z_2_25 z_2_26 z_2_27 z_2_24))))
(assert
 (let (($x6300 (= z_0_25 (and z_2_25 z_2_26 z_2_27 z_2_24))))
 (=> x_0_G $x6300)))
(assert
 (=> x_0_! (= z_0_26 (not z_2_26))))
(assert
 (let (($x6309 (= z_0_26 z_2_27)))
 (=> x_0_X $x6309)))
(assert
 (=> x_0_F (= z_0_26 (or z_2_26 z_2_27 z_2_24 z_2_25))))
(assert
 (let (($x6318 (= z_0_26 (and z_2_26 z_2_27 z_2_24 z_2_25))))
 (=> x_0_G $x6318)))
(assert
 (=> x_0_! (= z_0_27 (not z_2_27))))
(assert
 (let (($x6327 (= z_0_27 z_2_24)))
 (=> x_0_X $x6327)))
(assert
 (=> x_0_F (= z_0_27 (or z_2_27 z_2_24 z_2_25 z_2_26))))
(assert
 (let (($x6336 (= z_0_27 (and z_2_27 z_2_24 z_2_25 z_2_26))))
 (=> x_0_G $x6336)))
(assert
 (=> x_0_! (= z_0_28 (not z_2_28))))
(assert
 (let (($x6347 (= z_0_28 z_2_29)))
 (=> x_0_X $x6347)))
(assert
 (let (($x6351 (= z_0_28 (or z_2_28 z_2_29))))
 (=> x_0_F $x6351)))
(assert
 (let (($x6355 (= z_0_28 (and z_2_28 z_2_29))))
 (=> x_0_G $x6355)))
(assert
 (=> x_0_! (= z_0_29 (not z_2_29))))
(assert
 (let (($x6364 (= z_0_29 z_2_29)))
 (=> x_0_X $x6364)))
(assert
 (=> x_0_F (= z_0_29 (or z_2_29))))
(assert
 (=> x_0_G (= z_0_29 (and z_2_29))))
(assert
 (=> x_0_! (= z_0_30 (not z_2_30))))
(assert
 (let (($x6382 (= z_0_30 z_2_19)))
 (=> x_0_X $x6382)))
(assert
 (let (($x6386 (= z_0_30 (or z_2_30 z_2_19 z_2_20 z_2_16 z_2_17 z_2_18 z_2_15))))
 (=> x_0_F $x6386)))
(assert
 (let (($x6392 (= z_0_30 (and z_2_30 z_2_19 z_2_20 z_2_16 z_2_17 z_2_18 z_2_15))))
 (=> x_0_G $x6392)))
(assert
 (=> x_0_! (= z_0_31 (not z_2_31))))
(assert
 (let (($x6403 (= z_0_31 z_2_32)))
 (=> x_0_X $x6403)))
(assert
 (=> x_0_F (= z_0_31 (or z_2_31 z_2_32 z_2_28 z_2_29))))
(assert
 (let (($x6413 (= z_0_31 (and z_2_31 z_2_32 z_2_28 z_2_29))))
 (=> x_0_G $x6413)))
(assert
 (=> x_0_! (= z_0_32 (not z_2_32))))
(assert
 (let (($x6422 (= z_0_32 z_2_28)))
 (=> x_0_X $x6422)))
(assert
 (=> x_0_F (= z_0_32 (or z_2_32 z_2_28 z_2_29))))
(assert
 (let (($x6432 (= z_0_32 (and z_2_32 z_2_28 z_2_29))))
 (=> x_0_G $x6432)))
(assert
 (=> x_0_! (= z_0_33 (not z_2_33))))
(assert
 (let (($x6443 (= z_0_33 z_2_34)))
 (=> x_0_X $x6443)))
(assert
 (=> x_0_F (= z_0_33 (or z_2_33 z_2_34 z_2_25 z_2_26 z_2_27 z_2_24))))
(assert
 (let (($x6453 (= z_0_33 (and z_2_33 z_2_34 z_2_25 z_2_26 z_2_27 z_2_24))))
 (=> x_0_G $x6453)))
(assert
 (=> x_0_! (= z_0_34 (not z_2_34))))
(assert
 (let (($x6462 (= z_0_34 z_2_25)))
 (=> x_0_X $x6462)))
(assert
 (=> x_0_F (= z_0_34 (or z_2_34 z_2_25 z_2_26 z_2_27 z_2_24))))
(assert
 (let (($x6472 (= z_0_34 (and z_2_34 z_2_25 z_2_26 z_2_27 z_2_24))))
 (=> x_0_G $x6472)))
(assert
 (=> x_0_! (= z_0_35 (not z_2_35))))
(assert
 (let (($x6482 (= z_0_35 z_2_7)))
 (=> x_0_X $x6482)))
(assert
 (=> x_0_F (= z_0_35 (or z_2_35 z_2_7 z_2_8 z_2_9 z_2_10))))
(assert
 (let (($x6492 (= z_0_35 (and z_2_35 z_2_7 z_2_8 z_2_9 z_2_10))))
 (=> x_0_G $x6492)))
(assert
 (=> x_0_! (= z_0_36 (not z_2_36))))
(assert
 (let (($x6502 (= z_0_36 z_2_17)))
 (=> x_0_X $x6502)))
(assert
 (=> x_0_F (= z_0_36 (or z_2_36 z_2_17 z_2_18 z_2_15 z_2_16))))
(assert
 (let (($x6512 (= z_0_36 (and z_2_36 z_2_17 z_2_18 z_2_15 z_2_16))))
 (=> x_0_G $x6512)))
(assert
 (=> x_0_! (= z_0_37 (not z_2_37))))
(assert
 (let (($x6523 (= z_0_37 z_2_38)))
 (=> x_0_X $x6523)))
(assert
 (let (($x6527 (= z_0_37 (or z_2_37 z_2_38 z_2_20 z_2_16 z_2_17 z_2_18 z_2_15))))
 (=> x_0_F $x6527)))
(assert
 (let (($x6533 (= z_0_37 (and z_2_37 z_2_38 z_2_20 z_2_16 z_2_17 z_2_18 z_2_15))))
 (=> x_0_G $x6533)))
(assert
 (=> x_0_! (= z_0_38 (not z_2_38))))
(assert
 (let (($x6542 (= z_0_38 z_2_20)))
 (=> x_0_X $x6542)))
(assert
 (=> x_0_F (= z_0_38 (or z_2_38 z_2_20 z_2_16 z_2_17 z_2_18 z_2_15))))
(assert
 (let (($x6552 (= z_0_38 (and z_2_38 z_2_20 z_2_16 z_2_17 z_2_18 z_2_15))))
 (=> x_0_G $x6552)))
(assert
 (=> x_0_! (= z_0_39 (not z_2_39))))
(assert
 (let (($x6563 (= z_0_39 z_2_40)))
 (=> x_0_X $x6563)))
(assert
 (let (($x6568 (= z_0_39 (or z_2_39 z_2_40 z_2_41 z_2_6 z_2_5 z_2_3 z_2_4))))
 (=> x_0_F $x6568)))
(assert
 (let (($x6574 (= z_0_39 (and z_2_39 z_2_40 z_2_41 z_2_6 z_2_5 z_2_3 z_2_4))))
 (=> x_0_G $x6574)))
(assert
 (=> x_0_! (= z_0_40 (not z_2_40))))
(assert
 (let (($x6583 (= z_0_40 z_2_41)))
 (=> x_0_X $x6583)))
(assert
 (=> x_0_F (= z_0_40 (or z_2_40 z_2_41 z_2_6 z_2_5 z_2_3 z_2_4))))
(assert
 (let (($x6593 (= z_0_40 (and z_2_40 z_2_41 z_2_6 z_2_5 z_2_3 z_2_4))))
 (=> x_0_G $x6593)))
(assert
 (=> x_0_! (= z_0_41 (not z_2_41))))
(assert
 (let (($x6602 (= z_0_41 z_2_6)))
 (=> x_0_X $x6602)))
(assert
 (=> x_0_F (= z_0_41 (or z_2_41 z_2_6 z_2_5 z_2_3 z_2_4))))
(assert
 (let (($x6612 (= z_0_41 (and z_2_41 z_2_6 z_2_5 z_2_3 z_2_4))))
 (=> x_0_G $x6612)))
(assert
 (=> x_0_! (= z_0_42 (not z_2_42))))
(assert
 (let (($x6622 (= z_0_42 z_2_8)))
 (=> x_0_X $x6622)))
(assert
 (=> x_0_F (= z_0_42 (or z_2_42 z_2_8 z_2_9 z_2_10))))
(assert
 (let (($x6632 (= z_0_42 (and z_2_42 z_2_8 z_2_9 z_2_10))))
 (=> x_0_G $x6632)))
(assert
 (=> x_0_! (= z_0_43 (not z_2_43))))
(assert
 (let (($x6643 (= z_0_43 z_2_44)))
 (=> x_0_X $x6643)))
(assert
 (let (($x6652 (= z_0_43 (or z_2_43 z_2_44 z_2_45 z_2_46 z_2_47 z_2_48 z_2_49))))
 (=> x_0_F $x6652)))
(assert
 (let (($x6656 (= z_0_43 (and z_2_43 z_2_44 z_2_45 z_2_46 z_2_47 z_2_48 z_2_49))))
 (=> x_0_G $x6656)))
(assert
 (=> x_0_! (= z_0_44 (not z_2_44))))
(assert
 (let (($x6665 (= z_0_44 z_2_45)))
 (=> x_0_X $x6665)))
(assert
 (let (($x6669 (= z_0_44 (or z_2_44 z_2_45 z_2_46 z_2_47 z_2_48 z_2_49))))
 (=> x_0_F $x6669)))
(assert
 (let (($x6673 (= z_0_44 (and z_2_44 z_2_45 z_2_46 z_2_47 z_2_48 z_2_49))))
 (=> x_0_G $x6673)))
(assert
 (=> x_0_! (= z_0_45 (not z_2_45))))
(assert
 (let (($x6682 (= z_0_45 z_2_46)))
 (=> x_0_X $x6682)))
(assert
 (let (($x6686 (= z_0_45 (or z_2_45 z_2_46 z_2_47 z_2_48 z_2_49))))
 (=> x_0_F $x6686)))
(assert
 (let (($x6690 (= z_0_45 (and z_2_45 z_2_46 z_2_47 z_2_48 z_2_49))))
 (=> x_0_G $x6690)))
(assert
 (=> x_0_! (= z_0_46 (not z_2_46))))
(assert
 (let (($x6699 (= z_0_46 z_2_47)))
 (=> x_0_X $x6699)))
(assert
 (let (($x6703 (= z_0_46 (or z_2_46 z_2_47 z_2_48 z_2_49))))
 (=> x_0_F $x6703)))
(assert
 (let (($x6707 (= z_0_46 (and z_2_46 z_2_47 z_2_48 z_2_49))))
 (=> x_0_G $x6707)))
(assert
 (=> x_0_! (= z_0_47 (not z_2_47))))
(assert
 (let (($x6716 (= z_0_47 z_2_48)))
 (=> x_0_X $x6716)))
(assert
 (let (($x6719 (or z_2_47 z_2_48 z_2_49)))
 (let (($x6720 (= z_0_47 $x6719)))
 (=> x_0_F $x6720))))
(assert
 (let (($x6724 (= z_0_47 (and z_2_47 z_2_48 z_2_49))))
 (=> x_0_G $x6724)))
(assert
 (=> x_0_! (= z_0_48 (not z_2_48))))
(assert
 (let (($x6733 (= z_0_48 z_2_49)))
 (=> x_0_X $x6733)))
(assert
 (=> x_0_F (= z_0_48 (or z_2_48 z_2_49 z_2_47))))
(assert
 (let (($x6742 (= z_0_48 (and z_2_48 z_2_49 z_2_47))))
 (=> x_0_G $x6742)))
(assert
 (=> x_0_! (= z_0_49 (not z_2_49))))
(assert
 (let (($x6751 (= z_0_49 z_2_47)))
 (=> x_0_X $x6751)))
(assert
 (=> x_0_F (= z_0_49 (or z_2_49 z_2_47 z_2_48))))
(assert
 (let (($x6760 (= z_0_49 (and z_2_49 z_2_47 z_2_48))))
 (=> x_0_G $x6760)))
(assert
 (=> x_0_! (= z_0_50 (not z_2_50))))
(assert
 (let (($x6771 (= z_0_50 z_2_51)))
 (=> x_0_X $x6771)))
(assert
 (=> x_0_F (= z_0_50 (or z_2_50 z_2_51 z_2_48 z_2_49 z_2_47))))
(assert
 (let (($x6781 (= z_0_50 (and z_2_50 z_2_51 z_2_48 z_2_49 z_2_47))))
 (=> x_0_G $x6781)))
(assert
 (=> x_0_! (= z_0_51 (not z_2_51))))
(assert
 (let (($x6790 (= z_0_51 z_2_48)))
 (=> x_0_X $x6790)))
(assert
 (=> x_0_F (= z_0_51 (or z_2_51 z_2_48 z_2_49 z_2_47))))
(assert
 (let (($x6800 (= z_0_51 (and z_2_51 z_2_48 z_2_49 z_2_47))))
 (=> x_0_G $x6800)))
(assert
 (=> x_0_! (= z_0_52 (not z_2_52))))
(assert
 (let (($x6811 (= z_0_52 z_2_53)))
 (=> x_0_X $x6811)))
(assert
 (=> x_0_F (= z_0_52 (or z_2_52 z_2_53 z_2_42 z_2_8 z_2_9 z_2_10))))
(assert
 (let (($x6821 (= z_0_52 (and z_2_52 z_2_53 z_2_42 z_2_8 z_2_9 z_2_10))))
 (=> x_0_G $x6821)))
(assert
 (=> x_0_! (= z_0_53 (not z_2_53))))
(assert
 (let (($x6830 (= z_0_53 z_2_42)))
 (=> x_0_X $x6830)))
(assert
 (=> x_0_F (= z_0_53 (or z_2_53 z_2_42 z_2_8 z_2_9 z_2_10))))
(assert
 (let (($x6840 (= z_0_53 (and z_2_53 z_2_42 z_2_8 z_2_9 z_2_10))))
 (=> x_0_G $x6840)))
(assert
 (=> x_0_! (= z_0_54 (not z_2_54))))
(assert
 (let (($x6851 (= z_0_54 z_2_55)))
 (=> x_0_X $x6851)))
(assert
 (=> x_0_F (= z_0_54 (or z_2_54 z_2_55 z_2_42 z_2_8 z_2_9 z_2_10))))
(assert
 (let (($x6861 (= z_0_54 (and z_2_54 z_2_55 z_2_42 z_2_8 z_2_9 z_2_10))))
 (=> x_0_G $x6861)))
(assert
 (=> x_0_! (= z_0_55 (not z_2_55))))
(assert
 (let (($x6870 (= z_0_55 z_2_42)))
 (=> x_0_X $x6870)))
(assert
 (=> x_0_F (= z_0_55 (or z_2_55 z_2_42 z_2_8 z_2_9 z_2_10))))
(assert
 (let (($x6880 (= z_0_55 (and z_2_55 z_2_42 z_2_8 z_2_9 z_2_10))))
 (=> x_0_G $x6880)))
(assert
 (=> x_0_! (= z_0_56 (not z_2_56))))
(assert
 (let (($x6891 (= z_0_56 z_2_57)))
 (=> x_0_X $x6891)))
(assert
 (=> x_0_F (= z_0_56 (or z_2_56 z_2_57 z_2_4 z_2_5 z_2_3))))
(assert
 (let (($x6901 (= z_0_56 (and z_2_56 z_2_57 z_2_4 z_2_5 z_2_3))))
 (=> x_0_G $x6901)))
(assert
 (=> x_0_! (= z_0_57 (not z_2_57))))
(assert
 (let (($x6910 (= z_0_57 z_2_4)))
 (=> x_0_X $x6910)))
(assert
 (=> x_0_F (= z_0_57 (or z_2_57 z_2_4 z_2_5 z_2_3))))
(assert
 (let (($x6920 (= z_0_57 (and z_2_57 z_2_4 z_2_5 z_2_3))))
 (=> x_0_G $x6920)))
(assert
 (=> x_0_! (= z_0_58 (not z_2_58))))
(assert
 (let (($x6930 (= z_0_58 z_2_55)))
 (=> x_0_X $x6930)))
(assert
 (=> x_0_F (= z_0_58 (or z_2_58 z_2_55 z_2_42 z_2_8 z_2_9 z_2_10))))
(assert
 (let (($x6940 (= z_0_58 (and z_2_58 z_2_55 z_2_42 z_2_8 z_2_9 z_2_10))))
 (=> x_0_G $x6940)))
(assert
 (=> x_0_! (= z_0_59 (not z_2_59))))
(assert
 (let (($x6950 (= z_0_59 z_2_1)))
 (=> x_0_X $x6950)))
(assert
 (=> x_0_F (= z_0_59 (or z_2_59 z_2_1 z_2_2 z_2_0))))
(assert
 (let (($x6960 (= z_0_59 (and z_2_59 z_2_1 z_2_2 z_2_0))))
 (=> x_0_G $x6960)))
(assert
 (=> x_0_! (= z_0_60 (not z_2_60))))
(assert
 (let (($x6970 (= z_0_60 z_2_1)))
 (=> x_0_X $x6970)))
(assert
 (=> x_0_F (= z_0_60 (or z_2_60 z_2_1 z_2_2 z_2_0))))
(assert
 (let (($x6980 (= z_0_60 (and z_2_60 z_2_1 z_2_2 z_2_0))))
 (=> x_0_G $x6980)))
(assert
 (=> x_0_! (= z_0_61 (not z_2_61))))
(assert
 (let (($x6990 (= z_0_61 z_2_60)))
 (=> x_0_X $x6990)))
(assert
 (=> x_0_F (= z_0_61 (or z_2_61 z_2_60 z_2_1 z_2_2 z_2_0))))
(assert
 (let (($x7000 (= z_0_61 (and z_2_61 z_2_60 z_2_1 z_2_2 z_2_0))))
 (=> x_0_G $x7000)))
(assert
 (=> x_0_! (= z_0_62 (not z_2_62))))
(assert
 (let (($x7011 (= z_0_62 z_2_63)))
 (=> x_0_X $x7011)))
(assert
 (=> x_0_F (= z_0_62 (or z_2_62 z_2_63 z_2_27 z_2_24 z_2_25 z_2_26))))
(assert
 (let (($x7021 (= z_0_62 (and z_2_62 z_2_63 z_2_27 z_2_24 z_2_25 z_2_26))))
 (=> x_0_G $x7021)))
(assert
 (=> x_0_! (= z_0_63 (not z_2_63))))
(assert
 (let (($x7030 (= z_0_63 z_2_27)))
 (=> x_0_X $x7030)))
(assert
 (=> x_0_F (= z_0_63 (or z_2_63 z_2_27 z_2_24 z_2_25 z_2_26))))
(assert
 (let (($x7040 (= z_0_63 (and z_2_63 z_2_27 z_2_24 z_2_25 z_2_26))))
 (=> x_0_G $x7040)))
(assert
 (=> x_0_! (= z_0_64 (not z_2_64))))
(assert
 (let (($x7051 (= z_0_64 z_2_65)))
 (=> x_0_X $x7051)))
(assert
 (=> x_0_F (= z_0_64 (or z_2_64 z_2_65 z_2_66 z_2_2 z_2_0))))
(assert
 (let (($x7062 (= z_0_64 (and z_2_64 z_2_65 z_2_66 z_2_2 z_2_0))))
 (=> x_0_G $x7062)))
(assert
 (=> x_0_! (= z_0_65 (not z_2_65))))
(assert
 (let (($x7071 (= z_0_65 z_2_66)))
 (=> x_0_X $x7071)))
(assert
 (=> x_0_F (= z_0_65 (or z_2_65 z_2_66 z_2_2 z_2_0))))
(assert
 (let (($x7081 (= z_0_65 (and z_2_65 z_2_66 z_2_2 z_2_0))))
 (=> x_0_G $x7081)))
(assert
 (=> x_0_! (= z_0_66 (not z_2_66))))
(assert
 (let (($x7090 (= z_0_66 z_2_2)))
 (=> x_0_X $x7090)))
(assert
 (=> x_0_F (= z_0_66 (or z_2_66 z_2_2 z_2_0))))
(assert
 (let (($x7100 (= z_0_66 (and z_2_66 z_2_2 z_2_0))))
 (=> x_0_G $x7100)))
(assert
 (=> x_0_! (= z_0_67 (not z_2_67))))
(assert
 (let (($x7110 (= z_0_67 z_2_14)))
 (=> x_0_X $x7110)))
(assert
 (=> x_0_F (= z_0_67 (or z_2_67 z_2_14 z_2_15 z_2_16 z_2_17 z_2_18))))
(assert
 (let (($x7120 (= z_0_67 (and z_2_67 z_2_14 z_2_15 z_2_16 z_2_17 z_2_18))))
 (=> x_0_G $x7120)))
(assert
 (=> x_0_! (= z_0_68 (not z_2_68))))
(assert
 (let (($x7131 (= z_0_68 z_2_69)))
 (=> x_0_X $x7131)))
(assert
 (let (($x7140 (or z_2_68 z_2_69 z_2_70 z_2_71 z_2_72 z_2_73 z_2_74 z_2_75 z_2_19 z_2_20 z_2_16 z_2_17 z_2_18 z_2_15)))
 (=> x_0_F (= z_0_68 $x7140))))
(assert
 (let (($x7146 (and z_2_68 z_2_69 z_2_70 z_2_71 z_2_72 z_2_73 z_2_74 z_2_75 z_2_19 z_2_20 z_2_16 z_2_17 z_2_18 z_2_15)))
 (let (($x7147 (= z_0_68 $x7146)))
 (=> x_0_G $x7147))))
(assert
 (=> x_0_! (= z_0_69 (not z_2_69))))
(assert
 (let (($x7156 (= z_0_69 z_2_70)))
 (=> x_0_X $x7156)))
(assert
 (let (($x7159 (or z_2_69 z_2_70 z_2_71 z_2_72 z_2_73 z_2_74 z_2_75 z_2_19 z_2_20 z_2_16 z_2_17 z_2_18 z_2_15)))
 (=> x_0_F (= z_0_69 $x7159))))
(assert
 (let (($x7165 (and z_2_69 z_2_70 z_2_71 z_2_72 z_2_73 z_2_74 z_2_75 z_2_19 z_2_20 z_2_16 z_2_17 z_2_18 z_2_15)))
 (let (($x7166 (= z_0_69 $x7165)))
 (=> x_0_G $x7166))))
(assert
 (=> x_0_! (= z_0_70 (not z_2_70))))
(assert
 (let (($x7175 (= z_0_70 z_2_71)))
 (=> x_0_X $x7175)))
(assert
 (let (($x7178 (or z_2_70 z_2_71 z_2_72 z_2_73 z_2_74 z_2_75 z_2_19 z_2_20 z_2_16 z_2_17 z_2_18 z_2_15)))
 (=> x_0_F (= z_0_70 $x7178))))
(assert
 (let (($x7184 (and z_2_70 z_2_71 z_2_72 z_2_73 z_2_74 z_2_75 z_2_19 z_2_20 z_2_16 z_2_17 z_2_18 z_2_15)))
 (let (($x7185 (= z_0_70 $x7184)))
 (=> x_0_G $x7185))))
(assert
 (=> x_0_! (= z_0_71 (not z_2_71))))
(assert
 (let (($x7194 (= z_0_71 z_2_72)))
 (=> x_0_X $x7194)))
(assert
 (let (($x7197 (or z_2_71 z_2_72 z_2_73 z_2_74 z_2_75 z_2_19 z_2_20 z_2_16 z_2_17 z_2_18 z_2_15)))
 (=> x_0_F (= z_0_71 $x7197))))
(assert
 (let (($x7203 (and z_2_71 z_2_72 z_2_73 z_2_74 z_2_75 z_2_19 z_2_20 z_2_16 z_2_17 z_2_18 z_2_15)))
 (let (($x7204 (= z_0_71 $x7203)))
 (=> x_0_G $x7204))))
(assert
 (=> x_0_! (= z_0_72 (not z_2_72))))
(assert
 (let (($x7213 (= z_0_72 z_2_73)))
 (=> x_0_X $x7213)))
(assert
 (let (($x7216 (or z_2_72 z_2_73 z_2_74 z_2_75 z_2_19 z_2_20 z_2_16 z_2_17 z_2_18 z_2_15)))
 (=> x_0_F (= z_0_72 $x7216))))
(assert
 (let (($x7222 (and z_2_72 z_2_73 z_2_74 z_2_75 z_2_19 z_2_20 z_2_16 z_2_17 z_2_18 z_2_15)))
 (let (($x7223 (= z_0_72 $x7222)))
 (=> x_0_G $x7223))))
(assert
 (=> x_0_! (= z_0_73 (not z_2_73))))
(assert
 (let (($x7232 (= z_0_73 z_2_74)))
 (=> x_0_X $x7232)))
(assert
 (let (($x7235 (or z_2_73 z_2_74 z_2_75 z_2_19 z_2_20 z_2_16 z_2_17 z_2_18 z_2_15)))
 (=> x_0_F (= z_0_73 $x7235))))
(assert
 (let (($x7241 (and z_2_73 z_2_74 z_2_75 z_2_19 z_2_20 z_2_16 z_2_17 z_2_18 z_2_15)))
 (let (($x7242 (= z_0_73 $x7241)))
 (=> x_0_G $x7242))))
(assert
 (=> x_0_! (= z_0_74 (not z_2_74))))
(assert
 (let (($x7251 (= z_0_74 z_2_75)))
 (=> x_0_X $x7251)))
(assert
 (let (($x7254 (or z_2_74 z_2_75 z_2_19 z_2_20 z_2_16 z_2_17 z_2_18 z_2_15)))
 (=> x_0_F (= z_0_74 $x7254))))
(assert
 (let (($x7260 (and z_2_74 z_2_75 z_2_19 z_2_20 z_2_16 z_2_17 z_2_18 z_2_15)))
 (let (($x7261 (= z_0_74 $x7260)))
 (=> x_0_G $x7261))))
(assert
 (=> x_0_! (= z_0_75 (not z_2_75))))
(assert
 (let (($x7270 (= z_0_75 z_2_19)))
 (=> x_0_X $x7270)))
(assert
 (let (($x7274 (= z_0_75 (or z_2_75 z_2_19 z_2_20 z_2_16 z_2_17 z_2_18 z_2_15))))
 (=> x_0_F $x7274)))
(assert
 (let (($x7280 (= z_0_75 (and z_2_75 z_2_19 z_2_20 z_2_16 z_2_17 z_2_18 z_2_15))))
 (=> x_0_G $x7280)))
(assert
 (=> x_0_! (= z_0_76 (not z_2_76))))
(assert
 (let (($x7291 (= z_0_76 z_2_77)))
 (=> x_0_X $x7291)))
(assert
 (let (($x7295 (or z_2_76 z_2_77 z_2_78 z_2_23 z_2_24 z_2_25 z_2_26 z_2_27)))
 (=> x_0_F (= z_0_76 $x7295))))
(assert
 (let (($x7301 (and z_2_76 z_2_77 z_2_78 z_2_23 z_2_24 z_2_25 z_2_26 z_2_27)))
 (let (($x7302 (= z_0_76 $x7301)))
 (=> x_0_G $x7302))))
(assert
 (=> x_0_! (= z_0_77 (not z_2_77))))
(assert
 (let (($x7311 (= z_0_77 z_2_78)))
 (=> x_0_X $x7311)))
(assert
 (let (($x7315 (= z_0_77 (or z_2_77 z_2_78 z_2_23 z_2_24 z_2_25 z_2_26 z_2_27))))
 (=> x_0_F $x7315)))
(assert
 (let (($x7321 (= z_0_77 (and z_2_77 z_2_78 z_2_23 z_2_24 z_2_25 z_2_26 z_2_27))))
 (=> x_0_G $x7321)))
(assert
 (=> x_0_! (= z_0_78 (not z_2_78))))
(assert
 (let (($x7330 (= z_0_78 z_2_23)))
 (=> x_0_X $x7330)))
(assert
 (=> x_0_F (= z_0_78 (or z_2_78 z_2_23 z_2_24 z_2_25 z_2_26 z_2_27))))
(assert
 (let (($x7340 (= z_0_78 (and z_2_78 z_2_23 z_2_24 z_2_25 z_2_26 z_2_27))))
 (=> x_0_G $x7340)))
(assert
 (=> x_0_! (= z_0_79 (not z_2_79))))
(assert
 (let (($x7351 (= z_0_79 z_2_80)))
 (=> x_0_X $x7351)))
(assert
 (let (($x7355 (or z_2_79 z_2_80 z_2_81 z_2_73 z_2_74 z_2_75 z_2_19 z_2_20 z_2_16 z_2_17 z_2_18 z_2_15)))
 (=> x_0_F (= z_0_79 $x7355))))
(assert
 (let (($x7361 (and z_2_79 z_2_80 z_2_81 z_2_73 z_2_74 z_2_75 z_2_19 z_2_20 z_2_16 z_2_17 z_2_18 z_2_15)))
 (let (($x7362 (= z_0_79 $x7361)))
 (=> x_0_G $x7362))))
(assert
 (=> x_0_! (= z_0_80 (not z_2_80))))
(assert
 (let (($x7371 (= z_0_80 z_2_81)))
 (=> x_0_X $x7371)))
(assert
 (let (($x7374 (or z_2_80 z_2_81 z_2_73 z_2_74 z_2_75 z_2_19 z_2_20 z_2_16 z_2_17 z_2_18 z_2_15)))
 (=> x_0_F (= z_0_80 $x7374))))
(assert
 (let (($x7380 (and z_2_80 z_2_81 z_2_73 z_2_74 z_2_75 z_2_19 z_2_20 z_2_16 z_2_17 z_2_18 z_2_15)))
 (let (($x7381 (= z_0_80 $x7380)))
 (=> x_0_G $x7381))))
(assert
 (=> x_0_! (= z_0_81 (not z_2_81))))
(assert
 (let (($x7390 (= z_0_81 z_2_73)))
 (=> x_0_X $x7390)))
(assert
 (let (($x7393 (or z_2_81 z_2_73 z_2_74 z_2_75 z_2_19 z_2_20 z_2_16 z_2_17 z_2_18 z_2_15)))
 (=> x_0_F (= z_0_81 $x7393))))
(assert
 (let (($x7399 (and z_2_81 z_2_73 z_2_74 z_2_75 z_2_19 z_2_20 z_2_16 z_2_17 z_2_18 z_2_15)))
 (let (($x7400 (= z_0_81 $x7399)))
 (=> x_0_G $x7400))))
(assert
 (=> x_0_! (= z_0_82 (not z_2_82))))
(assert
 (let (($x7410 (= z_0_82 z_2_66)))
 (=> x_0_X $x7410)))
(assert
 (=> x_0_F (= z_0_82 (or z_2_82 z_2_66 z_2_2 z_2_0))))
(assert
 (let (($x7420 (= z_0_82 (and z_2_82 z_2_66 z_2_2 z_2_0))))
 (=> x_0_G $x7420)))
(assert
 (=> x_0_! (= z_0_83 (not z_2_83))))
(assert
 (let (($x7431 (= z_0_83 z_2_84)))
 (=> x_0_X $x7431)))
(assert
 (=> x_0_F (= z_0_83 (or z_2_83 z_2_84 z_2_57 z_2_4 z_2_5 z_2_3))))
(assert
 (let (($x7441 (= z_0_83 (and z_2_83 z_2_84 z_2_57 z_2_4 z_2_5 z_2_3))))
 (=> x_0_G $x7441)))
(assert
 (=> x_0_! (= z_0_84 (not z_2_84))))
(assert
 (let (($x7450 (= z_0_84 z_2_57)))
 (=> x_0_X $x7450)))
(assert
 (=> x_0_F (= z_0_84 (or z_2_84 z_2_57 z_2_4 z_2_5 z_2_3))))
(assert
 (let (($x7460 (= z_0_84 (and z_2_84 z_2_57 z_2_4 z_2_5 z_2_3))))
 (=> x_0_G $x7460)))
(assert
 (and true true))
(assert
 (=> x_2_p z_2_0))
(assert
 (=> x_2_p z_2_1))
(assert
 (let (($x1815 (not z_2_2)))
 (=> x_2_p $x1815)))
(assert
 (=> x_2_p z_2_3))
(assert
 (=> x_2_p z_2_4))
(assert
 (let (($x5913 (not z_2_5)))
 (=> x_2_p $x5913)))
(assert
 (let (($x5932 (not z_2_6)))
 (=> x_2_p $x5932)))
(assert
 (let (($x5952 (not z_2_7)))
 (=> x_2_p $x5952)))
(assert
 (let (($x5972 (not z_2_8)))
 (=> x_2_p $x5972)))
(assert
 (let (($x5989 (not z_2_9)))
 (=> x_2_p $x5989)))
(assert
 (=> x_2_p z_2_10))
(assert
 (let (($x6024 (not z_2_11)))
 (=> x_2_p $x6024)))
(assert
 (let (($x6048 (not z_2_12)))
 (=> x_2_p $x6048)))
(assert
 (let (($x6065 (not z_2_13)))
 (=> x_2_p $x6065)))
(assert
 (let (($x6082 (not z_2_14)))
 (=> x_2_p $x6082)))
(assert
 (let (($x6099 (not z_2_15)))
 (=> x_2_p $x6099)))
(assert
 (let (($x6116 (not z_2_16)))
 (=> x_2_p $x6116)))
(assert
 (let (($x6134 (not z_2_17)))
 (=> x_2_p $x6134)))
(assert
 (=> x_2_p z_2_18))
(assert
 (let (($x6171 (not z_2_19)))
 (=> x_2_p $x6171)))
(assert
 (=> x_2_p z_2_20))
(assert
 (let (($x6211 (not z_2_21)))
 (=> x_2_p $x6211)))
(assert
 (=> x_2_p z_2_22))
(assert
 (let (($x6251 (not z_2_23)))
 (=> x_2_p $x6251)))
(assert
 (let (($x6268 (not z_2_24)))
 (=> x_2_p $x6268)))
(assert
 (let (($x6285 (not z_2_25)))
 (=> x_2_p $x6285)))
(assert
 (=> x_2_p z_2_26))
(assert
 (=> x_2_p z_2_27))
(assert
 (=> x_2_p z_2_28))
(assert
 (let (($x6358 (not z_2_29)))
 (=> x_2_p $x6358)))
(assert
 (=> x_2_p z_2_30))
(assert
 (=> x_2_p z_2_31))
(assert
 (let (($x6416 (not z_2_32)))
 (=> x_2_p $x6416)))
(assert
 (let (($x6436 (not z_2_33)))
 (=> x_2_p $x6436)))
(assert
 (=> x_2_p z_2_34))
(assert
 (let (($x6476 (not z_2_35)))
 (=> x_2_p $x6476)))
(assert
 (=> x_2_p z_2_36))
(assert
 (=> x_2_p z_2_37))
(assert
 (=> x_2_p z_2_38))
(assert
 (let (($x6556 (not z_2_39)))
 (=> x_2_p $x6556)))
(assert
 (let (($x6577 (not z_2_40)))
 (=> x_2_p $x6577)))
(assert
 (let (($x6596 (not z_2_41)))
 (=> x_2_p $x6596)))
(assert
 (=> x_2_p z_2_42))
(assert
 (=> x_2_p z_2_43))
(assert
 (=> x_2_p z_2_44))
(assert
 (let (($x6676 (not z_2_45)))
 (=> x_2_p $x6676)))
(assert
 (=> x_2_p z_2_46))
(assert
 (let (($x6710 (not z_2_47)))
 (=> x_2_p $x6710)))
(assert
 (=> x_2_p z_2_48))
(assert
 (let (($x6745 (not z_2_49)))
 (=> x_2_p $x6745)))
(assert
 (let (($x6764 (not z_2_50)))
 (=> x_2_p $x6764)))
(assert
 (=> x_2_p z_2_51))
(assert
 (=> x_2_p z_2_52))
(assert
 (let (($x6824 (not z_2_53)))
 (=> x_2_p $x6824)))
(assert
 (=> x_2_p z_2_54))
(assert
 (=> x_2_p z_2_55))
(assert
 (=> x_2_p z_2_56))
(assert
 (let (($x6904 (not z_2_57)))
 (=> x_2_p $x6904)))
(assert
 (let (($x6924 (not z_2_58)))
 (=> x_2_p $x6924)))
(assert
 (let (($x6944 (not z_2_59)))
 (=> x_2_p $x6944)))
(assert
 (=> x_2_p z_2_60))
(assert
 (=> x_2_p z_2_61))
(assert
 (=> x_2_p z_2_62))
(assert
 (let (($x7024 (not z_2_63)))
 (=> x_2_p $x7024)))
(assert
 (let (($x7044 (not z_2_64)))
 (=> x_2_p $x7044)))
(assert
 (let (($x7065 (not z_2_65)))
 (=> x_2_p $x7065)))
(assert
 (let (($x7084 (not z_2_66)))
 (=> x_2_p $x7084)))
(assert
 (=> x_2_p z_2_67))
(assert
 (let (($x7124 (not z_2_68)))
 (=> x_2_p $x7124)))
(assert
 (=> x_2_p z_2_69))
(assert
 (let (($x7169 (not z_2_70)))
 (=> x_2_p $x7169)))
(assert
 (let (($x7188 (not z_2_71)))
 (=> x_2_p $x7188)))
(assert
 (let (($x7207 (not z_2_72)))
 (=> x_2_p $x7207)))
(assert
 (=> x_2_p z_2_73))
(assert
 (=> x_2_p z_2_74))
(assert
 (=> x_2_p z_2_75))
(assert
 (=> x_2_p z_2_76))
(assert
 (let (($x7305 (not z_2_77)))
 (=> x_2_p $x7305)))
(assert
 (let (($x7324 (not z_2_78)))
 (=> x_2_p $x7324)))
(assert
 (let (($x7344 (not z_2_79)))
 (=> x_2_p $x7344)))
(assert
 (=> x_2_p z_2_80))
(assert
 (=> x_2_p z_2_81))
(assert
 (=> x_2_p z_2_82))
(assert
 (let (($x7424 (not z_2_83)))
 (=> x_2_p $x7424)))
(assert
 (let (($x7444 (not z_2_84)))
 (=> x_2_p $x7444)))
(assert
 (or x_2_p))
(assert
 (let (($x7481 (not x_2_->)))
 (let (($x7479 (not x_2_U)))
 (let (($x7477 (not x_2_v)))
 (let (($x7475 (not x_2_&)))
 (let (($x7473 (not x_2_X)))
 (let (($x7471 (not x_2_!)))
 (let (($x7469 (not x_2_F)))
 (let (($x7467 (not x_2_G)))
 (and $x7467 $x7469 $x7471 $x7473 $x7475 $x7477 $x7479 $x7481))))))))))
(check-sat)

